NAME : rc205.1.4912209.tour
COMMENT : Length = 4912209
COMMENT : Found by LKH [Keld Helsgaun] Tue May  2 05:20:28 2017
TYPE : TOUR
DIMENSION : 23
TOUR_SECTION
1
15
18
14
7
9
8
6
11
19
10
22
2
20
12
17
21
3
4
5
13
23
16
-1
EOF
